(declare-const conc0 Real)
(assert (and (>= conc0 0) (<= conc0 100)))
(declare-const conc1 Real)
(assert (and (>= conc1 0) (<= conc1 100)))
(declare-const conc2 Real)
(assert (and (>= conc2 0) (<= conc2 100)))
(declare-const conc3 Real)
(assert (and (>= conc3 0) (<= conc3 100)))
(declare-const conc4 Real)
(assert (and (>= conc4 0) (<= conc4 100)))
(declare-const conc5 Real)
(assert (and (>= conc5 0) (<= conc5 100)))
(declare-const conc6 Real)
(assert (and (>= conc6 0) (<= conc6 100)))
(declare-const conc7 Real)
(assert (and (>= conc7 0) (<= conc7 100)))
(declare-const conc8 Real)
(assert (and (>= conc8 0) (<= conc8 100)))
(declare-const conc9 Real)
(assert (and (>= conc9 0) (<= conc9 100)))
(declare-const conc10 Real)
(assert (and (>= conc10 0) (<= conc10 100)))
(declare-const conc11 Real)
(assert (and (>= conc11 0) (<= conc11 100)))
(declare-const conc12 Real)
(assert (and (>= conc12 0) (<= conc12 100)))
(declare-const conc13 Real)
(assert (and (>= conc13 0) (<= conc13 100)))
(declare-const conc14 Real)
(assert (and (>= conc14 0) (<= conc14 100)))
(declare-const conc15 Real)
(assert (and (>= conc15 0) (<= conc15 100)))
(declare-const coef0 Real)
(assert (= coef0 (- (* 0.367879 conc3 conc0) (* 0.367879 conc6))))
(declare-const coef1 Real)
(assert (= coef1 (- (* 0.367879 conc7 conc4) (* 0.367879 conc6))))
(declare-const coef2 Real)
(assert (= coef2 (- (* 0.367879 conc2 conc2) (* 0.367879 conc4))))
(declare-const coef8 Real)
(assert (= coef8 (- (* 0.367879 conc2 conc0) (* 0.367879 conc5))))
(declare-const coef9 Real)
(assert (= coef9 (- (* 0.367879 conc7 conc3) (* 0.367879 conc5))))
(assert (> (+ (- coef2) (- coef2) (- coef8) 0) 0.00001))
(assert (> (+ (- coef0) (- coef9) 0) 0.00001))
(assert (> (+ (- coef1) coef2 0) 0.00001))
(assert (> (+ coef8 coef9 0) 0.00001))
(assert (> (+ coef0 coef1 0) 0.00001))
(check-sat)
(get-model)
